
  14    0


   0   8 2 3 4 5 10 11 12 13 
  10   2 9 7 
   3   2 8 6 
   8   1 7 
   5   1 6 
   2   1 14
   7   1 14
   7   1 14
   5   1 14
   5   1 14
   8   1 14
   7   1 14
   2   1 14
   0   0 
